(set-logic BV)
(set-info :status unknown)
(assert
 (forall ((ex_1 (_ BitVec 1)) (ex_2 (_ BitVec 1)) (ex_3 (_ BitVec 1)) (ex_4 (_ BitVec 1)) (ex_5 (_ BitVec 1)) (ex_6 (_ BitVec 1)) (ex_7 (_ BitVec 1)) (ex_8 (_ BitVec 1)) (ex_9 (_ BitVec 1)) (ex_10 (_ BitVec 1)) (ex_11 (_ BitVec 1)) (ex_12 (_ BitVec 1)) (ex_13 (_ BitVec 1)) (ex_14 (_ BitVec 1)) (ex_15 (_ BitVec 1)) (ex_16 (_ BitVec 1)) (ex_17 (_ BitVec 1)) (ex_18 (_ BitVec 1)) (ex_19 (_ BitVec 1)) (ex_20 (_ BitVec 1)) (ex_21 (_ BitVec 1)) (ex_22 (_ BitVec 1)) (ex_23 (_ BitVec 1)) (ex_24 (_ BitVec 1)) (ex_25 (_ BitVec 1)) (ex_26 (_ BitVec 1)) (ex_27 (_ BitVec 1)) (ex_28 (_ BitVec 1)) (ex_29 (_ BitVec 1)) (ex_30 (_ BitVec 1)) (ex_31 (_ BitVec 1)) (ex_32 (_ BitVec 1)) (ex_33 (_ BitVec 1)) (ex_34 (_ BitVec 1)) (ex_35 (_ BitVec 1)) (ex_36 (_ BitVec 1)) (ex_37 (_ BitVec 1)) (ex_38 (_ BitVec 1)) (ex_39 (_ BitVec 1)) (ex_40 (_ BitVec 1)) (ex_41 (_ BitVec 1)) (ex_42 (_ BitVec 1)) (ex_43 (_ BitVec 1)) (ex_44 (_ BitVec 1)) (ex_45 (_ BitVec 1)) (ex_46 (_ BitVec 1)) (ex_47 (_ BitVec 1)) (ex_48 (_ BitVec 1)) (ex_49 (_ BitVec 1)) )(exists ((exaux_1_49 (_ BitVec 6)) (cxaux_1_49 (_ BitVec 6)) (s_25 (_ BitVec 1)) (cx_1 (_ BitVec 1)) (cx_2 (_ BitVec 1)) (cx_8 (_ BitVec 1)) (cx_9 (_ BitVec 1)) (s_26 (_ BitVec 1)) (cx_10 (_ BitVec 1)) (cx_16 (_ BitVec 1)) (cx_17 (_ BitVec 1)) (s_27 (_ BitVec 1)) (cx_3 (_ BitVec 1)) (cx_4 (_ BitVec 1)) (cx_11 (_ BitVec 1)) (s_28 (_ BitVec 1)) (cx_12 (_ BitVec 1)) (cx_18 (_ BitVec 1)) (cx_19 (_ BitVec 1)) (s_29 (_ BitVec 1)) (cx_5 (_ BitVec 1)) (cx_6 (_ BitVec 1)) (cx_13 (_ BitVec 1)) (s_30 (_ BitVec 1)) (cx_14 (_ BitVec 1)) (cx_20 (_ BitVec 1)) (cx_21 (_ BitVec 1)) (s_31 (_ BitVec 1)) (s_32 (_ BitVec 1)) (cx_43 (_ BitVec 1)) (cx_44 (_ BitVec 1)) (s_33 (_ BitVec 1)) (cx_15 (_ BitVec 1)) (cx_22 (_ BitVec 1)) (cx_23 (_ BitVec 1)) (s_34 (_ BitVec 1)) (cx_24 (_ BitVec 1)) (cx_30 (_ BitVec 1)) (cx_31 (_ BitVec 1)) (s_35 (_ BitVec 1)) (cx_25 (_ BitVec 1)) (s_36 (_ BitVec 1)) (cx_26 (_ BitVec 1)) (cx_32 (_ BitVec 1)) (cx_33 (_ BitVec 1)) (s_37 (_ BitVec 1)) (cx_27 (_ BitVec 1)) (s_38 (_ BitVec 1)) (cx_28 (_ BitVec 1)) (cx_34 (_ BitVec 1)) (cx_35 (_ BitVec 1)) (s_39 (_ BitVec 1)) (s_40 (_ BitVec 1)) (cx_45 (_ BitVec 1)) (cx_46 (_ BitVec 1)) (s_41 (_ BitVec 1)) (cx_29 (_ BitVec 1)) (cx_36 (_ BitVec 1)) (cx_37 (_ BitVec 1)) (s_42 (_ BitVec 1)) (cx_38 (_ BitVec 1)) (s_43 (_ BitVec 1)) (cx_39 (_ BitVec 1)) (s_44 (_ BitVec 1)) (cx_40 (_ BitVec 1)) (cx_47 (_ BitVec 1)) (s_45 (_ BitVec 1)) (cx_41 (_ BitVec 1)) (s_46 (_ BitVec 1)) (cx_42 (_ BitVec 1)) (cx_48 (_ BitVec 1)) (cx_49 (_ BitVec 1)) (s_47 (_ BitVec 1)) (cx_7 (_ BitVec 1)) (s_48 (_ BitVec 1)) )(let (($x651 (bvule cxaux_1_49 (ite (bvule exaux_1_49 ((_ zero_extend 4) (_ bv3 2))) exaux_1_49 ((_ zero_extend 4) (_ bv3 2))))))
 (let (($x809 (= s_48 (bvadd cx_47 cx_48))))
 (let (($x803 (= s_47 (bvadd cx_6 cx_7))))
 (let (($x793 (and (= s_46 (bvadd cx_41 (bvadd cx_42 (bvadd cx_48 cx_49)))) (and $x803 (and $x809 $x651)))))
 (let (($x773 (and (= s_44 (bvadd cx_39 (bvadd cx_40 (bvadd cx_46 cx_47)))) (and (= s_45 (bvadd cx_33 (bvadd cx_34 (bvadd cx_40 cx_41)))) $x793))))
 (let (($x767 (and (= s_42 (bvadd cx_37 (bvadd cx_38 (bvadd cx_44 cx_45)))) (and (= s_43 (bvadd cx_31 (bvadd cx_32 (bvadd cx_38 cx_39)))) $x773))))
 (let (($x780 (= s_40 (bvadd cx_45 cx_46))))
 (let (($x782 (and $x780 (and (= s_41 (bvadd cx_29 (bvadd cx_30 (bvadd cx_36 cx_37)))) $x767))))
 (let (($x786 (= s_39 (bvadd cx_4 cx_5))))
 (let (($x798 (and (= s_38 (bvadd cx_27 (bvadd cx_28 (bvadd cx_34 cx_35)))) (and $x786 $x782))))
 (let (($x817 (and (= s_36 (bvadd cx_25 (bvadd cx_26 (bvadd cx_32 cx_33)))) (and (= s_37 (bvadd cx_19 (bvadd cx_20 (bvadd cx_26 cx_27)))) $x798))))
 (let (($x1204 (and (= s_34 (bvadd cx_23 (bvadd cx_24 (bvadd cx_30 cx_31)))) (and (= s_35 (bvadd cx_17 (bvadd cx_18 (bvadd cx_24 cx_25)))) $x817))))
 (let (($x1211 (= s_32 (bvadd cx_43 cx_44))))
 (let (($x1212 (and $x1211 (and (= s_33 (bvadd cx_15 (bvadd cx_16 (bvadd cx_22 cx_23)))) $x1204))))
 (let (($x1214 (= s_31 (bvadd cx_2 cx_3))))
 (let (($x1219 (and (= s_30 (bvadd cx_13 (bvadd cx_14 (bvadd cx_20 cx_21)))) (and $x1214 $x1212))))
 (let (($x1228 (and (= s_28 (bvadd cx_11 (bvadd cx_12 (bvadd cx_18 cx_19)))) (and (= s_29 (bvadd cx_5 (bvadd cx_6 (bvadd cx_12 cx_13)))) $x1219))))
 (let (($x1237 (and (= s_26 (bvadd cx_9 (bvadd cx_10 (bvadd cx_16 cx_17)))) (and (= s_27 (bvadd cx_3 (bvadd cx_4 (bvadd cx_10 cx_11)))) $x1228))))
 (let (($x758 (= s_25 (bvadd cx_1 (bvadd cx_2 (bvadd cx_8 cx_9))))))
 (let ((?x1366 (bvadd cx_43 (bvadd ex_8 (bvadd ex_15 (bvadd ex_22 (bvadd ex_29 (bvadd ex_36 ex_43))))))))
 (let ((?x1372 (bvadd cx_1 (bvadd cx_8 (bvadd cx_15 (bvadd cx_22 (bvadd cx_29 (bvadd cx_36 ?x1366))))))))
 (let ((?x989 (bvadd ex_47 ex_48)))
 (let (($x1375 (= s_48 ?x989)))
 (let ((?x969 (bvadd ex_6 ex_7)))
 (let (($x1377 (= s_47 ?x969)))
 (let (($x1383 (and (= s_46 (bvadd ex_41 (bvadd ex_42 (bvadd ex_48 ex_49)))) (and $x1377 (and $x1375 (= (_ bv0 1) (bvadd ex_1 ?x1372)))))))
 (let (($x1393 (and (= s_44 (bvadd ex_39 (bvadd ex_40 (bvadd ex_46 ex_47)))) (and (= s_45 (bvadd ex_33 (bvadd ex_34 (bvadd ex_40 ex_41)))) $x1383))))
 (let (($x1403 (and (= s_42 (bvadd ex_37 (bvadd ex_38 (bvadd ex_44 ex_45)))) (and (= s_43 (bvadd ex_31 (bvadd ex_32 (bvadd ex_38 ex_39)))) $x1393))))
 (let ((?x999 (bvadd ex_45 ex_46)))
 (let (($x1409 (= s_40 ?x999)))
 (let (($x1410 (and $x1409 (and (= s_41 (bvadd ex_29 (bvadd ex_30 (bvadd ex_36 ex_37)))) $x1403))))
 (let (($x1412 (= s_39 (bvadd ex_4 ex_5))))
 (let (($x1418 (and (= s_38 (bvadd ex_27 (bvadd ex_28 (bvadd ex_34 ex_35)))) (and $x1412 $x1410))))
 (let (($x1428 (and (= s_36 (bvadd ex_25 (bvadd ex_26 (bvadd ex_32 ex_33)))) (and (= s_37 (bvadd ex_19 (bvadd ex_20 (bvadd ex_26 ex_27)))) $x1418))))
 (let (($x1438 (and (= s_34 (bvadd ex_23 (bvadd ex_24 (bvadd ex_30 ex_31)))) (and (= s_35 (bvadd ex_17 (bvadd ex_18 (bvadd ex_24 ex_25)))) $x1428))))
 (let ((?x1009 (bvadd ex_43 ex_44)))
 (let (($x1444 (= s_32 ?x1009)))
 (let (($x1445 (and $x1444 (and (= s_33 (bvadd ex_15 (bvadd ex_16 (bvadd ex_22 ex_23)))) $x1438))))
 (let (($x1447 (= s_31 (bvadd ex_2 ex_3))))
 (let (($x1453 (and (= s_30 (bvadd ex_13 (bvadd ex_14 (bvadd ex_20 ex_21)))) (and $x1447 $x1445))))
 (let (($x1463 (and (= s_28 (bvadd ex_11 (bvadd ex_12 (bvadd ex_18 ex_19)))) (and (= s_29 (bvadd ex_5 (bvadd ex_6 (bvadd ex_12 ex_13)))) $x1453))))
 (let (($x1473 (and (= s_26 (bvadd ex_9 (bvadd ex_10 (bvadd ex_16 ex_17)))) (and (= s_27 (bvadd ex_3 (bvadd ex_4 (bvadd ex_10 ex_11)))) $x1463))))
 (let (($x1479 (and (and (= s_25 (bvadd ex_1 (bvadd ex_2 (bvadd ex_8 ex_9)))) $x1473) (and $x758 $x1237))))
 (let ((?x310 ((_ zero_extend 4) (_ bv3 2))))
 (let (($x649 (bvule exaux_1_49 ?x310)))
 (let (($x818 (not $x649)))
 (let ((?x1144 (bvadd (bvadd (bvadd (_ bv0 6) ((_ zero_extend 5) ex_1)) ((_ zero_extend 5) ex_2)) ((_ zero_extend 5) ex_3))))
 (let ((?x1147 (bvadd (bvadd (bvadd ?x1144 ((_ zero_extend 5) ex_4)) ((_ zero_extend 5) ex_5)) ((_ zero_extend 5) ex_6))))
 (let ((?x1150 (bvadd (bvadd (bvadd ?x1147 ((_ zero_extend 5) ex_7)) ((_ zero_extend 5) ex_8)) ((_ zero_extend 5) ex_9))))
 (let ((?x1153 (bvadd (bvadd (bvadd ?x1150 ((_ zero_extend 5) ex_10)) ((_ zero_extend 5) ex_11)) ((_ zero_extend 5) ex_12))))
 (let ((?x1156 (bvadd (bvadd (bvadd ?x1153 ((_ zero_extend 5) ex_13)) ((_ zero_extend 5) ex_14)) ((_ zero_extend 5) ex_15))))
 (let ((?x1159 (bvadd (bvadd (bvadd ?x1156 ((_ zero_extend 5) ex_16)) ((_ zero_extend 5) ex_17)) ((_ zero_extend 5) ex_18))))
 (let ((?x1162 (bvadd (bvadd (bvadd ?x1159 ((_ zero_extend 5) ex_19)) ((_ zero_extend 5) ex_20)) ((_ zero_extend 5) ex_21))))
 (let ((?x1165 (bvadd (bvadd (bvadd ?x1162 ((_ zero_extend 5) ex_22)) ((_ zero_extend 5) ex_23)) ((_ zero_extend 5) ex_24))))
 (let ((?x1168 (bvadd (bvadd (bvadd ?x1165 ((_ zero_extend 5) ex_25)) ((_ zero_extend 5) ex_26)) ((_ zero_extend 5) ex_27))))
 (let ((?x1171 (bvadd (bvadd (bvadd ?x1168 ((_ zero_extend 5) ex_28)) ((_ zero_extend 5) ex_29)) ((_ zero_extend 5) ex_30))))
 (let ((?x1174 (bvadd (bvadd (bvadd ?x1171 ((_ zero_extend 5) ex_31)) ((_ zero_extend 5) ex_32)) ((_ zero_extend 5) ex_33))))
 (let ((?x1177 (bvadd (bvadd (bvadd ?x1174 ((_ zero_extend 5) ex_34)) ((_ zero_extend 5) ex_35)) ((_ zero_extend 5) ex_36))))
 (let ((?x1180 (bvadd (bvadd (bvadd ?x1177 ((_ zero_extend 5) ex_37)) ((_ zero_extend 5) ex_38)) ((_ zero_extend 5) ex_39))))
 (let ((?x1183 (bvadd (bvadd (bvadd ?x1180 ((_ zero_extend 5) ex_40)) ((_ zero_extend 5) ex_41)) ((_ zero_extend 5) ex_42))))
 (let ((?x1186 (bvadd (bvadd (bvadd ?x1183 ((_ zero_extend 5) ex_43)) ((_ zero_extend 5) ex_44)) ((_ zero_extend 5) ex_45))))
 (let ((?x1189 (bvadd (bvadd (bvadd ?x1186 ((_ zero_extend 5) ex_46)) ((_ zero_extend 5) ex_47)) ((_ zero_extend 5) ex_48))))
 (let ((?x1190 (bvadd ?x1189 ((_ zero_extend 5) ex_49))))
 (let (($x1191 (= ?x1190 exaux_1_49)))
 (let ((?x822 ((_ zero_extend 5) cx_49)))
 (let ((?x823 ((_ zero_extend 5) cx_48)))
 (let ((?x824 ((_ zero_extend 5) cx_47)))
 (let ((?x833 ((_ zero_extend 5) cx_46)))
 (let ((?x849 ((_ zero_extend 5) cx_44)))
 (let ((?x829 ((_ zero_extend 5) cx_41)))
 (let ((?x825 ((_ zero_extend 5) cx_40)))
 (let ((?x830 ((_ zero_extend 5) cx_39)))
 (let ((?x827 ((_ zero_extend 5) cx_37)))
 (let ((?x834 ((_ zero_extend 5) cx_36)))
 (let ((?x836 ((_ zero_extend 5) cx_34)))
 (let ((?x838 ((_ zero_extend 5) cx_32)))
 (let ((?x840 ((_ zero_extend 5) cx_30)))
 (let ((?x837 ((_ zero_extend 5) cx_28)))
 (let ((?x842 ((_ zero_extend 5) cx_27)))
 (let ((?x839 ((_ zero_extend 5) cx_26)))
 (let ((?x844 ((_ zero_extend 5) cx_25)))
 (let ((?x841 ((_ zero_extend 5) cx_24)))
 (let ((?x846 ((_ zero_extend 5) cx_22)))
 (let ((?x850 ((_ zero_extend 5) cx_21)))
 (let ((?x851 ((_ zero_extend 5) cx_20)))
 (let ((?x852 ((_ zero_extend 5) cx_19)))
 (let ((?x853 ((_ zero_extend 5) cx_18)))
 (let ((?x854 ((_ zero_extend 5) cx_17)))
 (let ((?x855 ((_ zero_extend 5) cx_16)))
 (let ((?x847 ((_ zero_extend 5) cx_15)))
 (let ((?x857 ((_ zero_extend 5) cx_13)))
 (let ((?x859 ((_ zero_extend 5) cx_11)))
 (let ((?x862 ((_ zero_extend 5) cx_10)))
 (let ((?x860 ((_ zero_extend 5) cx_9)))
 (let ((?x861 ((_ zero_extend 5) cx_8)))
 (let ((?x863 ((_ zero_extend 5) cx_6)))
 (let ((?x864 ((_ zero_extend 5) cx_5)))
 (let ((?x865 ((_ zero_extend 5) cx_4)))
 (let ((?x866 ((_ zero_extend 5) cx_3)))
 (let ((?x1314 (bvadd (bvadd (bvadd (bvadd (_ bv0 6) ((_ zero_extend 5) cx_1)) ((_ zero_extend 5) cx_2)) ?x866) ?x865)))
 (let ((?x1319 (bvadd (bvadd (bvadd (bvadd (bvadd ?x1314 ?x864) ?x863) ((_ zero_extend 5) cx_7)) ?x861) ?x860)))
 (let ((?x1324 (bvadd (bvadd (bvadd (bvadd (bvadd ?x1319 ?x862) ?x859) ((_ zero_extend 5) cx_12)) ?x857) ((_ zero_extend 5) cx_14))))
 (let ((?x1330 (bvadd (bvadd (bvadd (bvadd (bvadd (bvadd ?x1324 ?x847) ?x855) ?x854) ?x853) ?x852) ?x851)))
 (let ((?x1335 (bvadd (bvadd (bvadd (bvadd (bvadd ?x1330 ?x850) ?x846) ((_ zero_extend 5) cx_23)) ?x841) ?x844)))
 (let ((?x1340 (bvadd (bvadd (bvadd (bvadd (bvadd ?x1335 ?x839) ?x842) ?x837) ((_ zero_extend 5) cx_29)) ?x840)))
 (let ((?x1344 (bvadd (bvadd (bvadd (bvadd ?x1340 ((_ zero_extend 5) cx_31)) ?x838) ((_ zero_extend 5) cx_33)) ?x836)))
 (let ((?x1348 (bvadd (bvadd (bvadd (bvadd ?x1344 ((_ zero_extend 5) cx_35)) ?x834) ?x827) ((_ zero_extend 5) cx_38))))
 (let ((?x1353 (bvadd (bvadd (bvadd (bvadd (bvadd ?x1348 ?x830) ?x825) ?x829) ((_ zero_extend 5) cx_42)) ((_ zero_extend 5) cx_43))))
 (let ((?x1358 (bvadd (bvadd (bvadd (bvadd (bvadd ?x1353 ?x849) ((_ zero_extend 5) cx_45)) ?x833) ?x824) ?x823)))
 (let (($x1195 (not (bvule ?x1190 ((_ zero_extend 3) (_ bv6 3))))))
 (or $x1195 (and (and $x1191 (= (bvadd ?x1358 ?x822) cxaux_1_49) $x1191) (or $x818 $x1479))))))))))))))))))))))))))))))))))))))))))))))))))))))))))))))))))))))))))))))))))))))))))))))))))))))))))))))))))
 )
 )
(check-sat)